 H + Cu(111), moving surf, Einc(eV)=5.000 # traj= 818
 1.00000000000000000                                                            
     5.9467679279999999     .0000000000000000     .0000000000000000             
    -2.9733839639999999    5.1500523720000002     .0000000000000000             
      .0000000000000000     .0000000000000000   20.2953200000000002             
  16 1                                                                          
Selective dynamics                                                              
Cartesian                                                                       
    .209003560    .250410690    .161683880  T  T  T
   3.113708870    .358731170    .091634790  T  T  T
  -1.385175900   2.915449490  20.280810060  T  T  T
   1.490584740   2.862337410    .015862210  T  T  T
   1.633927530   1.187370020  18.006189340  T  T  T
   4.602649380   1.158601360  17.986483400  T  T  T
    .089022610   3.690686920  17.869643450  T  T  T
   2.980146990   3.665697690  17.975758740  T  T  T
   -.061496720   1.878179600  15.523079060  T  T  T
   2.934111210   1.774998300  15.534938230  T  T  T
  -1.571141080   4.447692040  15.506658930  T  T  T
   1.580073870   4.417627010  15.465743160  T  T  T
    .000000000    .000000000  12.999999990  F  F  F
   2.973383960    .000000000  12.999999990  F  F  F
  -1.486691980   2.575026190  12.999999990  F  F  F
   1.486691980   2.575026190  12.999999990  F  F  F
   5.424158000   5.040267000   6.000000000  T  T  T
 
   -.000299480   -.001339270   -.001268560
    .000669500   -.000172300    .000580550
   -.000801860    .000713080    .001166170
    .000115080    .001225740    .001643620
    .001289210    .000313250   -.000147850
    .000537220   -.000165810   -.000450350
    .000320040   -.000040510    .001070680
    .000052270   -.000267700    .000237250
    .000117780    .000066640    .000416460
    .000178000   -.000095820    .000558530
   -.000251950   -.000340440   -.000922220
    .000544010    .000694640    .000054390
    .000000000    .000000000    .000000000
    .000000000    .000000000    .000000000
    .000000000    .000000000    .000000000
    .000000000    .000000000    .000000000
    .069346900    .040037450   -.298843600
