 H + Cu(111), moving surf, Einc(eV)=5.000 # traj= 858
 1.00000000000000000                                                            
     5.9467679279999999     .0000000000000000     .0000000000000000             
    -2.9733839639999999    5.1500523720000002     .0000000000000000             
      .0000000000000000     .0000000000000000   20.2953200000000002             
  16 1                                                                          
Selective dynamics                                                              
Cartesian                                                                       
  -2.804055190   5.133040460    .193912240  T  T  T
    .143162910   5.095909460    .039726470  T  T  T
  -1.372685750   2.485837320  20.288620110  T  T  T
   1.642563820   2.563459730    .147585130  T  T  T
   1.501407710    .951646920  17.935201390  T  T  T
   4.432142460    .892936830  17.853242390  T  T  T
   -.079333040   3.502121930  17.866767800  T  T  T
   2.964352700   3.515652300  17.936581470  T  T  T
   -.110105450   1.856669020  15.433794670  T  T  T
   2.855782670   1.866779810  15.579864760  T  T  T
  -1.541471320   4.317064620  15.545049560  T  T  T
   1.405071760   4.326362880  15.402639130  T  T  T
    .000000000    .000000000  12.999999990  F  F  F
   2.973383960    .000000000  12.999999990  F  F  F
  -1.486691980   2.575026190  12.999999990  F  F  F
   1.486691980   2.575026190  12.999999990  F  F  F
   4.282360000   5.058829000   6.000000000  T  T  T
 
    .000579540   -.000337070    .000772740
   -.000730220    .000184660    .000759250
   -.001075730   -.000243780    .000928610
    .000556930    .000257320    .000126850
    .000834240   -.001069150   -.000125830
   -.000050670    .000424880   -.000115180
    .000314290    .000413190    .000411990
   -.000345770   -.000238500    .000753570
    .000272410    .000635340   -.000825820
   -.001126110    .001393550   -.000440100
   -.001106170   -.000801480    .000467400
   -.000583330   -.000238520   -.000159520
    .000000000    .000000000    .000000000
    .000000000    .000000000    .000000000
    .000000000    .000000000    .000000000
    .000000000    .000000000    .000000000
    .069346900    .040037450   -.298843600
