 H + Cu(111), moving surf, Einc(eV)=5.000 # traj= 817
 1.00000000000000000                                                            
     5.9467679279999999     .0000000000000000     .0000000000000000             
    -2.9733839639999999    5.1500523720000002     .0000000000000000             
      .0000000000000000     .0000000000000000   20.2953200000000002             
  16 1                                                                          
Selective dynamics                                                              
Cartesian                                                                       
    .053141000    .020557410    .144092310  T  T  T
   3.044875180    .031834840    .082541680  T  T  T
  -1.345693220   2.574199290    .038763050  T  T  T
   1.621240850   2.519910790    .128330760  T  T  T
   1.495174930    .855036720  17.957611280  T  T  T
   4.467913160    .868556690  17.920577800  T  T  T
    .131923010   3.419574360  17.906187400  T  T  T
   3.145524970   3.432342170  17.813439410  T  T  T
    .056242360   1.654259500  15.461202690  T  T  T
   2.999991740   1.687479810  15.491607520  T  T  T
  -1.375710750   4.304476760  15.407364280  T  T  T
   1.463824820   4.192551240  15.475459950  T  T  T
    .000000000    .000000000  12.999999990  F  F  F
   2.973383960    .000000000  12.999999990  F  F  F
  -1.486691980   2.575026190  12.999999990  F  F  F
   1.486691980   2.575026190  12.999999990  F  F  F
    .866700700   2.601595000   6.000000000  T  T  T
 
    .000857150   -.000024280   -.001349540
    .000773040    .000317530    .000305950
    .000015730    .000360860   -.000298950
   -.000813740   -.000140470   -.001453550
   -.000117790   -.000277360    .001428990
   -.000299080   -.000014290    .000628040
    .002488040    .000902960    .000409860
   -.000933140   -.000196680    .000653810
   -.001428710    .000353350   -.000660920
    .000424090    .000555380   -.000277030
   -.000199040    .000134780    .001092500
    .000608740   -.000810150   -.000917650
    .000000000    .000000000    .000000000
    .000000000    .000000000    .000000000
    .000000000    .000000000    .000000000
    .000000000    .000000000    .000000000
    .069346900    .040037450   -.298843600
