 H + Cu(111), moving surf, Einc(eV)=5.000 # traj= 825
 1.00000000000000000                                                            
     5.9467679279999999     .0000000000000000     .0000000000000000             
    -2.9733839639999999    5.1500523720000002     .0000000000000000             
      .0000000000000000     .0000000000000000   20.2953200000000002             
  16 1                                                                          
Selective dynamics                                                              
Cartesian                                                                       
  -2.759628070   5.049876800    .094274810  T  T  T
    .253596140   5.147202900  20.250056160  T  T  T
  -1.163073030   2.488715840    .113751210  T  T  T
   1.758985480   2.456459470    .008854040  T  T  T
   1.518017710    .646736060  17.803482120  T  T  T
   4.567778400    .560141640  17.747000040  T  T  T
    .070462630   3.325983180  17.847347210  T  T  T
   3.152361280   3.046596710  17.949906970  T  T  T
   -.091175430   1.444444150  15.435626330  T  T  T
   2.925461960   1.533577500  15.414931600  T  T  T
  -1.545632060   4.053176300  15.481576560  T  T  T
   1.366669350   4.024857650  15.393841310  T  T  T
    .000000000    .000000000  12.999999990  F  F  F
   2.973383960    .000000000  12.999999990  F  F  F
  -1.486691980   2.575026190  12.999999990  F  F  F
   1.486691980   2.575026190  12.999999990  F  F  F
   3.892572000   1.789664000   6.000000000  T  T  T
 
    .001701160    .000094710   -.000798210
   -.000522320    .000398070   -.001240350
   -.000605110   -.000785380   -.000775990
   -.000295660    .000554170   -.000253180
   -.000778830   -.000179140    .000373230
    .000439590    .000005970    .000005780
    .001717950   -.001093690   -.000101580
   -.000062740    .000117580    .000636160
   -.000880360    .000485240    .001032520
   -.000154440    .000712360    .000606220
    .000765590   -.001143260    .001131770
   -.000408960   -.000478230    .000346850
    .000000000    .000000000    .000000000
    .000000000    .000000000    .000000000
    .000000000    .000000000    .000000000
    .000000000    .000000000    .000000000
    .069346900    .040037450   -.298843600
