 H + Cu(111), moving surf, Einc(eV)=5.000 # traj= 821
 1.00000000000000000                                                            
     5.9467679279999999     .0000000000000000     .0000000000000000             
    -2.9733839639999999    5.1500523720000002     .0000000000000000             
      .0000000000000000     .0000000000000000   20.2953200000000002             
  16 1                                                                          
Selective dynamics                                                              
Cartesian                                                                       
   2.913154830   5.137641620    .033145300  T  T  T
   2.971443090    .057959980    .147827250  T  T  T
  -1.432402810   2.583112390    .066783170  T  T  T
   1.429000930   2.519519800    .218943270  T  T  T
   1.466553250    .780083690  17.881563290  T  T  T
   4.364999560    .749736690  17.921902070  T  T  T
   -.048599250   3.221916130  17.887726980  T  T  T
   2.801763130   3.471452280  17.914534260  T  T  T
    .019956190   1.715010650  15.381333300  T  T  T
   2.981885430   1.786668890  15.580862070  T  T  T
  -1.405516610   4.259583960  15.515383480  T  T  T
   1.598112970   4.378683450  15.388991740  T  T  T
    .000000000    .000000000  12.999999990  F  F  F
   2.973383960    .000000000  12.999999990  F  F  F
  -1.486691980   2.575026190  12.999999990  F  F  F
   1.486691980   2.575026190  12.999999990  F  F  F
   4.442933000   4.126603000   6.000000000  T  T  T
 
    .000372060    .000409530   -.000212390
    .000253720    .000346700    .000357300
    .000240200   -.000423570    .001827590
   -.000725520   -.001316890    .000987060
    .000030640    .000980130   -.001492010
   -.000398140   -.001050040   -.000078040
    .000361430   -.000769440   -.000022730
   -.000010440    .000274860   -.000410270
   -.000190760   -.000317270   -.000111930
   -.000250510    .000240200    .000715510
   -.000756210    .000239920    .000466890
   -.000067790    .000138480   -.000735400
    .000000000    .000000000    .000000000
    .000000000    .000000000    .000000000
    .000000000    .000000000    .000000000
    .000000000    .000000000    .000000000
    .069346900    .040037450   -.298843600
