 H + Cu(111), moving surf, Einc(eV)=5.000 # traj= 814
 1.00000000000000000                                                            
     5.9467679279999999     .0000000000000000     .0000000000000000             
    -2.9733839639999999    5.1500523720000002     .0000000000000000             
      .0000000000000000     .0000000000000000   20.2953200000000002             
  16 1                                                                          
Selective dynamics                                                              
Cartesian                                                                       
   2.887563390   5.073271430    .027738430  T  T  T
   -.163762540   5.047075070    .004638090  T  T  T
   4.311704210   2.482541130    .051165310  T  T  T
   1.445681350   2.522182940  20.266187490  T  T  T
   1.386085690    .750310620  17.722515970  T  T  T
   4.443440160    .762653230  17.859000990  T  T  T
   -.112624860   3.360142760  17.891421950  T  T  T
   2.812889770   3.269679100  17.766751650  T  T  T
   -.038177060   1.706848380  15.444013170  T  T  T
   3.082971630   1.672070130  15.432875090  T  T  T
  -1.481494920   4.263708890  15.432562550  T  T  T
   1.531297920   4.150380650  15.409963710  T  T  T
    .000000000    .000000000  12.999999990  F  F  F
   2.973383960    .000000000  12.999999990  F  F  F
  -1.486691980   2.575026190  12.999999990  F  F  F
   1.486691980   2.575026190  12.999999990  F  F  F
   4.216541000   4.953162000   6.000000000  T  T  T
 
   -.000488790    .000235510    .000784210
   -.000639200    .000974420    .001261660
    .000349150   -.001215440   -.000046270
   -.000158420   -.000652150    .001089550
    .001404790    .000124710   -.000699990
    .000081040   -.000091080    .000754170
   -.001027910    .000439430   -.001424530
    .000444600    .000665820   -.000858800
   -.000025100    .000751650   -.000536300
   -.000533130   -.001238790    .001716580
    .000037720   -.000104880    .000293670
    .000425650    .000994660   -.001390130
    .000000000    .000000000    .000000000
    .000000000    .000000000    .000000000
    .000000000    .000000000    .000000000
    .000000000    .000000000    .000000000
    .069346900    .040037450   -.298843600
