 H + Cu(111), moving surf, Einc(eV)=5.000 # traj= 801
 1.00000000000000000                                                            
     5.9467679279999999     .0000000000000000     .0000000000000000             
    -2.9733839639999999    5.1500523720000002     .0000000000000000             
      .0000000000000000     .0000000000000000   20.2953200000000002             
  16 1                                                                          
Selective dynamics                                                              
Cartesian                                                                       
  -2.776637290   5.007295390  20.277692700  T  T  T
    .155133720   4.995495440    .124990150  T  T  T
  -1.403887190   2.460999750    .028177210  T  T  T
   1.684856660   2.416438250    .058546720  T  T  T
   1.635601040    .685764750  17.950930460  T  T  T
   4.453814770    .786342130  18.026929330  T  T  T
    .045579390   3.229998050  17.930012890  T  T  T
   2.962438430   3.390697920  17.838079150  T  T  T
    .029190160   1.744580910  15.504106590  T  T  T
   3.043813290   1.607093770  15.558633830  T  T  T
  -1.447206600   4.266497700  15.497584690  T  T  T
   1.520598640   4.306916650  15.511869960  T  T  T
    .000000000    .000000000  12.999999990  F  F  F
   2.973383960    .000000000  12.999999990  F  F  F
  -1.486691980   2.575026190  12.999999990  F  F  F
   1.486691980   2.575026190  12.999999990  F  F  F
   4.486414000   3.538787000   6.000000000  T  T  T
 
   -.000088610    .000020810    .000023340
    .000371020    .000570470    .000448630
    .001444780    .001610400    .000774980
    .000992200   -.000755590    .000034600
   -.000920130    .000572090    .000361160
    .001422480   -.001461200   -.000846210
   -.000362660   -.001227460   -.001251820
   -.000346670   -.000826020   -.001107410
   -.000331220    .000505140   -.000083410
    .000058720   -.001206300   -.000663660
   -.000868660   -.001633160   -.000999750
   -.000930240   -.001619410    .000529200
    .000000000    .000000000    .000000000
    .000000000    .000000000    .000000000
    .000000000    .000000000    .000000000
    .000000000    .000000000    .000000000
    .069346900    .040037450   -.298843600
