 H + Cu(111), moving surf, Einc(eV)=5.000 # traj= 820
 1.00000000000000000                                                            
     5.9467679279999999     .0000000000000000     .0000000000000000             
    -2.9733839639999999    5.1500523720000002     .0000000000000000             
      .0000000000000000     .0000000000000000   20.2953200000000002             
  16 1                                                                          
Selective dynamics                                                              
Cartesian                                                                       
   2.755230860   4.943404410    .028543740  T  T  T
   -.218676690   4.968119460    .118622090  T  T  T
   4.186695530   2.324897000    .024729640  T  T  T
   1.150770690   2.466094180    .025408120  T  T  T
   1.237099770    .744621760  17.864511370  T  T  T
   4.214043830    .649863580  17.863954060  T  T  T
   -.248495630   3.275124100  17.817014030  T  T  T
   2.770731340   3.292046910  17.925768330  T  T  T
   -.214910510   1.711123800  15.456376060  T  T  T
   2.765628810   1.750185560  15.417877460  T  T  T
  -1.533156670   4.303438400  15.537532580  T  T  T
   1.338947650   4.189168220  15.463178640  T  T  T
    .000000000    .000000000  12.999999990  F  F  F
   2.973383960    .000000000  12.999999990  F  F  F
  -1.486691980   2.575026190  12.999999990  F  F  F
   1.486691980   2.575026190  12.999999990  F  F  F
   5.485830000   1.439128000   6.000000000  T  T  T
 
    .000578440    .000102070    .001239440
   -.000445740   -.000420300    .001081540
    .000372100   -.000125690    .000262720
   -.000123440   -.000273390   -.000629660
   -.001079800    .000068780    .000554270
   -.000041370   -.000790870   -.000605920
    .000060230   -.000729270    .000856160
   -.000015000   -.000350800    .000624180
    .000024600   -.000862040    .000108990
    .000290290   -.001709820   -.000250140
    .000396350    .000513000    .000089100
   -.000345490    .000278330   -.000683750
    .000000000    .000000000    .000000000
    .000000000    .000000000    .000000000
    .000000000    .000000000    .000000000
    .000000000    .000000000    .000000000
    .069346900    .040037450   -.298843600
