 H + Cu(111), moving surf, Einc(eV)=5.000 # traj= 831
 1.00000000000000000                                                            
     5.9467679279999999     .0000000000000000     .0000000000000000             
    -2.9733839639999999    5.1500523720000002     .0000000000000000             
      .0000000000000000     .0000000000000000   20.2953200000000002             
  16 1                                                                          
Selective dynamics                                                              
Cartesian                                                                       
  -2.764714670   5.049580720    .096614860  T  T  T
    .255154790   5.145948550  20.253797200  T  T  T
  -1.161270870   2.491088470    .116042150  T  T  T
   1.759814160   2.454818970    .009646970  T  T  T
   1.520329990    .647289480  17.802408910  T  T  T
   4.566499010    .560130920  17.747060120  T  T  T
    .065344600   3.329151290  17.847690000  T  T  T
   3.152511910   3.046347850  17.947943200  T  T  T
   -.088478840   1.443046990  15.432522770  T  T  T
   2.925905680   1.531446970  15.413137490  T  T  T
  -1.547955260   4.056634810  15.478171610  T  T  T
   1.367950430   4.026326910  15.392838310  T  T  T
    .000000000    .000000000  12.999999990  F  F  F
   2.973383960    .000000000  12.999999990  F  F  F
  -1.486691980   2.575026190  12.999999990  F  F  F
   1.486691980   2.575026190  12.999999990  F  F  F
   5.732795000   1.339822000   6.000000000  T  T  T
 
    .001689300    .000102590   -.000761580
   -.000516540    .000437960   -.001253440
   -.000596070   -.000796300   -.000751230
   -.000256930    .000539570   -.000275200
   -.000761940   -.000190110    .000341770
    .000412790    .000001080   -.000045460
    .001693510   -.001017930   -.000126440
   -.000037290    .000048260    .000672890
   -.000916830    .000445510    .001035670
   -.000141650    .000707460    .000589480
    .000782770   -.001161650    .001137760
   -.000444740   -.000500870    .000321480
    .000000000    .000000000    .000000000
    .000000000    .000000000    .000000000
    .000000000    .000000000    .000000000
    .000000000    .000000000    .000000000
    .069346900    .040037450   -.298843600
