 H + Cu(111), moving surf, Einc(eV)=5.000 # traj= 833
 1.00000000000000000                                                            
     5.9467679279999999     .0000000000000000     .0000000000000000             
    -2.9733839639999999    5.1500523720000002     .0000000000000000             
      .0000000000000000     .0000000000000000   20.2953200000000002             
  16 1                                                                          
Selective dynamics                                                              
Cartesian                                                                       
    .018361630    .011208630    .191288460  T  T  T
   3.014930610    .007211260    .067040920  T  T  T
  -1.351842210   2.565819690    .053643980  T  T  T
   1.653807010   2.540096830    .181204530  T  T  T
   1.505456830    .867021720  17.894749970  T  T  T
   4.488986070    .856536680  17.889456550  T  T  T
    .029875850   3.384826810  17.893047400  T  T  T
   3.166367730   3.446683520  17.795522100  T  T  T
    .103435170   1.635557750  15.492036150  T  T  T
   2.993453350   1.669533370  15.498842390  T  T  T
  -1.387876950   4.287095950  15.369495650  T  T  T
   1.459818240   4.240386160  15.515085750  T  T  T
    .000000000    .000000000  12.999999990  F  F  F
   2.973383960    .000000000  12.999999990  F  F  F
  -1.486691980   2.575026190  12.999999990  F  F  F
   1.486691980   2.575026190  12.999999990  F  F  F
   5.798604000   1.299581000   6.000000000  T  T  T
 
    .000685130    .000405820   -.000746970
    .000590510    .000764470    .000424780
    .000256940    .000048380   -.000375060
   -.000617450   -.000716170   -.000890360
   -.000371410   -.000286090    .001266530
   -.000598230    .000607730    .000687300
    .001967250    .000619290    .000163280
    .000111200   -.000431210    .000132730
   -.000660490    .000423720   -.000634940
   -.000156700    .000197660    .000001730
    .000728060    .000695100    .000633620
   -.000412570   -.001269050   -.000845710
    .000000000    .000000000    .000000000
    .000000000    .000000000    .000000000
    .000000000    .000000000    .000000000
    .000000000    .000000000    .000000000
    .069346900    .040037450   -.298843600
