 H + Cu(111), moving surf, Einc(eV)=5.000 # traj= 832
 1.00000000000000000                                                            
     5.9467679279999999     .0000000000000000     .0000000000000000             
    -2.9733839639999999    5.1500523720000002     .0000000000000000             
      .0000000000000000     .0000000000000000   20.2953200000000002             
  16 1                                                                          
Selective dynamics                                                              
Cartesian                                                                       
    .087565890    .021538390  20.241503710  T  T  T
    .078045170   5.108050660    .098708520  T  T  T
  -1.492786440   2.618770270    .091877930  T  T  T
   1.645561140   2.667362610  20.178094230  T  T  T
   1.527230210    .895424670  17.800152470  T  T  T
   4.542437850    .974218410  17.835136130  T  T  T
   -.050059390   3.554611110  17.905157410  T  T  T
   3.037399170   3.422813640  17.799623780  T  T  T
    .133957990   1.784974320  15.508039220  T  T  T
   3.017636990   1.692302630  15.384278760  T  T  T
  -1.460472440   4.280829310  15.376537920  T  T  T
   1.609592910   4.308885510  15.452044230  T  T  T
    .000000000    .000000000  12.999999990  F  F  F
   2.973383960    .000000000  12.999999990  F  F  F
  -1.486691980   2.575026190  12.999999990  F  F  F
   1.486691980   2.575026190  12.999999990  F  F  F
    .575838700   2.364300000   6.000000000  T  T  T
 
   -.000857790    .001041440    .001100110
    .001197660   -.000103850    .001020960
    .000484380   -.000360890   -.000548380
    .000020620    .000524820    .000194630
   -.000821470    .001402850    .000603890
   -.000670100   -.001105480    .000370590
   -.000593730   -.000448670    .000141260
    .000627670   -.000840820   -.000630370
   -.000451420    .000225010    .000689130
    .000543490    .001342280    .000471360
    .000608580    .000989450   -.000327870
    .000812020   -.000522650    .000057540
    .000000000    .000000000    .000000000
    .000000000    .000000000    .000000000
    .000000000    .000000000    .000000000
    .000000000    .000000000    .000000000
    .069346900    .040037450   -.298843600
